0tutorial/attachment/eqsystem/4-data-blocks/eqsystem-data-blocks-full-B-ERROR-novalue.log
GLPSOL: GLPK LP/MIP Solver, v4.65
Parameter(s) specified in the command line:
 -m eqsystem-data-blocks-full.mod -d eqsystem-data-blocks-full-B-ERROR-novalue.dat
 --log eqsystem-data-blocks-full-B-ERROR-novalue.log
Reading model section from eqsystem-data-blocks-full.mod...
33 lines were read
Reading data section from eqsystem-data-blocks-full-B-ERROR-novalue.dat...
17 lines were read
Generating Eq1...
Generating Eq2...
Generating Eq3...
eqsystem-data-blocks-full.mod:21: no value for c3z
MathProg model processing error
